c NeuroCodeBench 2.0 CNF formula with verdict Unsat
p cnf 21 63
1 8 -16 15 17 -6 3 -7 0
1 -8 21 15 -16 3 12 -17 0
1 8 16 3 -2 -7 0
-1 8 20 -3 5 -7 0
1 -8 21 -15 -2 -3 -9 -10 0
-1 8 20 3 9 5 -15 -7 0
1 8 -16 15 17 6 -14 -11 0
1 8 -16 -15 -18 0
1 8 16 -3 2 18 -13 0
1 -8 -21 0
-1 8 -20 -7 2 -10 -19 21 0
-1 8 -20 -7 2 10 0
1 -8 21 15 -16 -3 0
-1 8 20 3 9 5 15 0
1 -8 21 -15 -2 3 4 7 0
-1 8 -20 7 -19 -15 -5 0
1 -8 21 -15 -2 -3 9 -13 -16 0
1 8 -16 15 -17 0
1 -8 21 -15 -2 3 -4 0
1 8 -16 15 17 -6 -3 0
1 8 -16 -15 18 0
1 8 16 3 2 0
1 -8 21 15 16 -11 0
1 -8 21 15 -16 3 -12 0
-1 8 -20 -7 2 -10 19 -14 0
1 8 16 -3 -2 0
1 8 -16 15 17 -6 3 7 0
1 8 16 -3 2 -18 0
1 -8 21 15 16 11 3 14 0
-1 8 -20 7 19 0
-1 8 20 -3 5 7 0
1 8 16 3 -2 7 0
1 -8 21 -15 -2 -3 9 13 0
-1 -8 3 -18 0
-1 8 -20 -7 2 -10 -19 -21 0
-1 -8 -3 0
-1 8 -20 -7 2 -10 19 14 11 0
1 -8 21 -15 -2 -3 -9 10 0
-1 -8 3 18 -12 0
-1 8 20 3 9 5 -15 7 0
-1 8 20 3 9 -5 0
-1 8 20 3 -9 11 -21 0
-1 8 -20 7 -19 15 21 -3 0
-1 8 -20 7 -19 15 21 3 0
-1 8 20 3 -9 -11 0
1 8 16 -3 2 18 13 0
1 -8 21 15 16 11 -3 0
1 -8 21 15 16 11 3 -14 0
-1 8 -20 -7 -2 0
-1 -8 3 18 12 0
1 -8 21 -15 2 0
1 -8 21 -15 -2 -3 9 -13 16 0
-1 8 -20 7 -19 15 -21 0
-1 8 -20 -7 2 -10 19 14 -11 0
1 -8 21 -15 -2 3 4 -7 0
1 8 -16 15 17 6 14 -9 -3 0
1 8 -16 15 17 6 14 -9 3 0
-1 8 20 3 -9 11 21 0
1 8 -16 15 17 6 14 9 0
1 -8 21 15 -16 3 12 17 0
-1 8 -20 7 -19 -15 5 0
-1 8 20 -3 -5 0
1 8 -16 15 17 6 -14 11 0
